NAME : CMT2
COMMENT : 835.26
TYPE : CVRP
DIMENSION : 11
EDGE_WEIGHT_TYPE : EUC_2D
CAPACITY : 140
NODE_COORD_SECTION
1 40.00000 40.00000
2 22.00000 22.00000
3 36.00000 26.00000
4 21.00000 45.00000
5 45.00000 35.00000
6 55.00000 20.00000
7 33.00000 34.00000
8 50.00000 50.00000
9 55.00000 45.00000
10 26.00000 59.00000
11 40.00000 66.00000
DEMAND_SECTION
1 0
2 18
3 26
4 11
5 30
6 21
7 19
8 15
9 16
10 29
11 26
DEPOT_SECTION
1
-1
EOF
